certificates/rado_a11_c48_N31.drat
-27 2 -31 0
9 13 -1 2 0
-4 -9 -28 -30 0
4 7 2 -29 0
-28 -29 -30 -31 0
-29 -30 -31 0
d -28 -29 -30 -31 0
28 -30 -31 0
-30 -31 0
d -29 -30 -31 0
-28 -31 0
-31 0
4 28 0
-4 -2 0
d -4 -6 -2 0
28 0
-2 0
7 0
5 0
-14 0
-12 0
-21 0
-4 0
6 0
8 0
30 0
27 0
18 0
10 0
16 0
25 0
17 0
-24 0
-9 0
0
